N = 4;

ACTORES = { Actor1 , Actor2 , Actor3 , Actor4 };

M = 4;

Escenas =
[| 1 , 0 , 1 , 1 , 10
| 0 , 1 , 0 , 1 , 20
| 0 , 1 , 1 , 0 , 5
| 1 , 0 , 0 , 1 , 2|];

Duracion =
[ 2 , 3 , 1 , 2 ];

Disponibilidad = 
[|Actor1, 8
|Actor2, 8
|Actor3, 8
|Actor4, 8|];

E = 0;

Evitar = 
[];